
--- Job Nonlinear.gms Start 01/29/20 16:39:35 30.1.0 re01a340 WEX-WEI x86 64bit/MS Windows
--- GAMS Parameters defined
    Input C:\Users\debernal\Dropbox\CMU\Research\StableSet\GAMS\Nonlinear.gms
    PageWidth 80
    PageSize 0
    PageContr 3
    Action CE
    ScrDir C:\Users\debernal\Dropbox\CMU\Research\StableSet\GAMS\225a\
    SysDir C:\GAMS\win64\30.1\
    WorkDir C:\Users\debernal\Dropbox\CMU\Research\StableSet\GAMS\
    LogOption 3
    DFormat 0
    TFormat 0
    ErrorLog 99
    LimRow 50
    IDE 1
    OptCR 0
GAMS 30.1.0   Copyright (C) 1987-2020 GAMS Development. All rights reserved
Licensee: Eval License Carnegie Mellon University        G191212/0001AB-GEN
          Dept. of Chemical Engineering                              DCE375
          Evaluation license: Not for commercial or production use
--- Starting compilation
--- Nonlinear.gms(1) 2 Mb
--- . cycle.inc(10) 3 Mb
--- Nonlinear.gms(24) 3 Mb
--- Starting execution: elapsed 0:00:00.008
--- Nonlinear.gms(30) 4 Mb
--- Generating MIQCP model stableset
--- Nonlinear.gms(32) 6 Mb
---   501 rows  501 columns  1,501 non-zeroes
---   2,001 nl-code  1,000 nl-non-zeroes
---   500 discrete-columns
--- Nonlinear.gms(32) 4 Mb
--- Executing GUROBI: elapsed 0:00:00.121

Gurobi           30.1.0 re01a340 Released Jan 10, 2020 WEI x86 64bit/MS Window

Academic license - for non-commercial use only
GAMS/Gurobi demo/community requires a Gurobi license from Gurobi Optimization.
Gurobi library version 9.0.0
Starting Gurobi...
Gurobi Optimizer version 9.0.0 build v9.0.0rc2 (win64)
Optimize a model with 0 rows, 500 columns and 0 nonzeros
Model fingerprint: 0x8574abcf
Model has 500 quadratic constraints
Variable types: 0 continuous, 500 integer (500 binary)
Coefficient statistics:
  Matrix range     [0e+00, 0e+00]
  QMatrix range    [1e+00, 1e+00]
  Objective range  [1e+00, 1e+00]
  Bounds range     [1e+00, 1e+00]
  RHS range        [0e+00, 0e+00]
Found heuristic solution: objective -0.0000000
Presolve added 500 rows and 0 columns
Presolve time: 0.00s
Presolved: 500 rows, 500 columns, 1000 nonzeros
Variable types: 0 continuous, 500 integer (500 binary)

Root relaxation: objective 2.500000e+02, 0 iterations, 0.00 seconds

    Nodes    |    Current Node    |     Objective Bounds      |     Work
 Expl Unexpl |  Obj  Depth IntInf | Incumbent    BestBd   Gap | It/Node Time

*    0     0               0     250.0000000  250.00000  0.00%     -    0s

Explored 0 nodes (0 simplex iterations) in 0.01 seconds
Thread count was 1 (of 8 available processors)

Solution count 2: 250 -0

Optimal solution found (tolerance 0.00e+00)
Best objective 2.500000000000e+02, best bound 2.500000000000e+02, gap 0.0000%

User-callback calls 44, time in user-callback 0.00 sec
MIQCP status(2): Model was solved to optimality (subject to tolerances).

Solving fixed MIQCP.
Gurobi Optimizer version 9.0.0 build v9.0.0rc2 (win64)
Optimize a model with 0 rows, 500 columns and 0 nonzeros
Model fingerprint: 0x42988e10
Model has 500 quadratic constraints
Coefficient statistics:
  Matrix range     [0e+00, 0e+00]
  QMatrix range    [1e+00, 1e+00]
  Objective range  [1e+00, 1e+00]
  Bounds range     [1e+00, 1e+00]
  RHS range        [0e+00, 0e+00]
Presolve removed 0 rows and 500 columns
Presolve time: 0.00s
Presolve: All rows and columns removed

Barrier solved model in 0 iterations and 0.00 seconds
Optimal objective 2.50000000e+02
Solving KKT system to obtain QCP duals...

Optimize a model with 500 rows, 500 columns and 500 nonzeros
Model fingerprint: 0xad5bd345
Coefficient statistics:
  Matrix range     [1e+00, 1e+00]
  Objective range  [1e+00, 3e+00]
  QObjective range [2e+00, 2e+00]
  Bounds range     [1e+00, 1e+00]
  RHS range        [0e+00, 0e+00]
Presolve removed 500 rows and 500 columns
Presolve time: 0.00s
Presolve: All rows and columns removed

Barrier solved model in 0 iterations and 0.00 seconds
Optimal objective 2.50000000e+02


User-callback calls 67, time in user-callback 0.00 sec
Fixed MIQCP status(2): Model was solved to optimality (subject to tolerances).

MIQCP Solution:        250.000000    (0 iterations, 0 nodes)
Final Solve:           250.000000    (0 iterations)

Best possible:         250.000000
Absolute gap:            0.000000
Relative gap:            0.000000

--- Restarting execution
--- Nonlinear.gms(32) 2 Mb
--- Reading solution for model stableset
--- Executing after solve: elapsed 0:00:00.289
--- Nonlinear.gms(34) 3 Mb
*** Status: Normal completion
--- Job Nonlinear.gms Stop 01/29/20 16:39:36 elapsed 0:00:00.303
